letting n =  10
letting blocks =  [[1, 3], [1, 6], [1, 7], [1, 10], [2, 5], [3, 3], [3, 4], [4, 1], [4, 5], [4, 6], [4, 8], [4, 9], [5, 2], [5, 3], [6, 2], [6, 3], [6, 8], [7, 1], [7, 3], [7, 5], [7, 6], [8, 9], [9, 2], [9, 8], [10, 5], [10, 6]]
